11,5	0,0	8,9	13,6	0,0	0,0	0,0	0,0	0,0	13,1
5,1	8,4	0,0	11,7	13,8	0,0	0,0	9,7	0,0	0,0
0,0	0,0	13,1	0,0	18,4	18,5	0,0	0,0	9,9	0,0
9,0	0,0	7,7	0,0	0,0	0,0	18,9	0,0	0,0	0,0
0,0	16,0	0,0	5,8	13,9	0,0	0,0	6,8	0,0	0,0
0,0	6,4	14,7	0,0	5,8	13,3	0,0	0,0	19,4	0,0
0,0	13,2	0,0	17,1	0,0	0,0	7,6	0,0	0,0	6,7
6,4	0,0	8,5	0,0	0,0	0,0	0,0	0,0	0,0	15,0
0,0	8,7	0,0	7,1	19,5	0,0	0,0	12,5	0,0	0,0
0,0	0,0	15,9	0,0	0,0	15,5	12,0	0,0	0,0	10,6
									
4,4	4,7	2,9	4,7	4,9	5,0	3,3	3,2	4,7	2,8
